p tw 21 361 10 
1 11 
1 12 
1 13 
2 10 
2 14 
2 15 
2 16 
3 10 
3 17 
3 18 
3 19 
4 11 
4 14 
4 17 
4 20 
5 12 
5 15 
5 18 
5 20 
6 13 
6 16 
6 19 
6 20 
7 11 
7 16 
7 18 
7 21 
8 13 
8 15 
8 17 
8 21 
9 12 
9 14 
9 19 
9 21 
